Route 1: 0 67 47 24 56 44 80 0
Route 2: 0 100 88 16 40 55 36 0
Route 3: 0 95 64 27 3 5 30 25 84 78 0
Route 4: 0 91 38 53 58 57 70 65 33 43 85 34 8 0
Route 5: 0 10 63 90 54 32 41 4 75 13 26 83 0
Route 6: 0 86 98 94 87 20 73 0
Route 7: 0 77 61 68 12 9 72 74 1 45 7 0
Route 8: 0 79 37 31 22 42 59 51 28 29 0
Route 9: 0 15 60 50 18 6 76 23 35 39 0
Route 10: 0 48 96 49 52 71 69 99 89 2 62 0
Route 11: 0 14 19 97 21 82 81 0
Route 12: 0 93 66 17 46 92 11 0
